13
raw_data/rcpsp/CV.xlsx cv13
Time limit set to 60 seconds
Running CP solver
/home/omastto1/General-Optimization-Solver/src/solvers/rcpsp.py:31(stream:44:6): Warning: Cumulative expression 'pulse': height is zero, expression is zero everywhere.
                                                                                            VarCumulAtom_85 = pulse("0", 0)
/home/omastto1/General-Optimization-Solver/src/solvers/rcpsp.py:31(stream:44:396): Warning: Cumulative expression 'pulse': height is zero, expression is zero everywhere.
                                                                                              VarCumulAtom_110 = pulse("25", 0)
/home/omastto1/General-Optimization-Solver/src/solvers/rcpsp.py:31(stream:45:6): Warning: Cumulative expression 'pulse': height is zero, expression is zero everywhere.
                                                                                            VarCumulAtom_114 = pulse("0", 0)
/home/omastto1/General-Optimization-Solver/src/solvers/rcpsp.py:31(stream:45:396): Warning: Cumulative expression 'pulse': height is zero, expression is zero everywhere.
                                                                                              VarCumulAtom_139 = pulse("25", 0)
 ! --------------------------------------------------- CP Optimizer 20.1.0.0 --
 ! Minimization problem - 27 variables, 47 constraints
 ! TimeLimit            = 60
 ! Workers              = 14
 ! LogVerbosity         = Terse
 ! Initial process time : 0.00s (0.00s extraction + 0.00s propagation)
 !  . Log search space  : 142.1 (before), 142.1 (after)
 !  . Memory usage      : 550.8 kB (before), 550.8 kB (after)
 ! Using parallel search with 14 workers.
 ! ----------------------------------------------------------------------------
 !          Best Branches  Non-fixed    W       Branch decision
                        0         27                 -
 + New bound is 26
 ! Using iterative diving.
 ! Using temporal relaxation.
 *            48       55  1.01s        1      (gap is 45.83%)
 *            46      148  1.01s        1      (gap is 43.48%)
 *            45      455  1.01s        1      (gap is 42.22%)
 *            44      479  1.01s        1      (gap is 40.91%)
              44     3428          1    1   F        -
 + New bound is 38 (gap is 13.64%)
 ! Using failure-directed search.
 *            43     6737  1.01s        2      (gap is 11.63%)
              43    31489         15    1   F    29 >= startOf(9)
 + New bound is 39 (gap is 9.30%)
              43    58023         20    1   F    41 >= cost
 + New bound is 40 (gap is 6.98%)
 ! ----------------------------------------------------------------------------
 ! Search terminated by limit, 5 solutions found.
 ! Best objective         : 43 (gap is 6.98%)
 ! Best bound             : 40
 ! ----------------------------------------------------------------------------
 ! Number of branches     : 10609030
 ! Number of fails        : 3124608
 ! Total memory usage     : 10.6 MB (10.6 MB CP Optimizer + 0.1 MB Concert)
 ! Time spent in solve    : 60.07s (60.07s engine + 0.00s extraction)
 ! Search speed (br. / s) : 176640.5
 ! ----------------------------------------------------------------------------
(40,)
(0.0697674,)
(43,)
Objective value: 43
Solution is 4.9 % worse than the lower bound.
Feasible solution found
